# Solution for model r3_t27_m1_1
# Finished Task: 26 / 27
# Makespan: 925.0, Total Distance: 1344.0, Total Time: 3.2355
# R O S F
0 0 19 0.0 0.0
1 1 5 0.0 0.0
2 2 4 0.0 0.0
3 1 9 227.0 265.0
4 2 8 130.0 161.0
5 1 3 105.0 141.0
6 1 -1 894.0 925.0
7 2 29 753.0 783.0
8 2 13 200.0 237.0
9 1 15 364.0 396.0
10 1 25 725.0 749.0
11 2 14 559.0 588.0
12 0 -1 846.0 872.0
13 2 16 300.0 332.0
14 2 7 597.0 636.0
15 1 28 416.0 454.0
16 2 18 416.0 452.0
17 1 10 599.0 634.0
18 2 11 471.0 509.0
19 0 27 332.0 366.0
20 1 21 821.0 850.0
21 1 6 862.0 894.0
22 0 24 772.0 796.0
23 2 -1 883.0 905.0
24 0 12 808.0 836.0
25 1 20 773.0 795.0
26 -1 -1 -1.0 -1.0
27 0 22 679.0 716.0
28 1 17 485.0 518.0
29 2 23 798.0 824.0
